;; Mutation-Based Equivalence Benchmark
;; Source:     AutomatArk / instance09188.smt2
;; Mutations:  range_shrink_lo
;; Status:     sat
;;
;; Original regex vs mutated regex
;; Equivalence check: unsat ⟺ L(R1) = L(R2)

(set-info :smt-lib-version 2.6)
(set-info :category "mutation")
(set-info :status sat)
(set-logic QF_S)

(declare-const x String)

;; R1: original
;; R2: mutated (range_shrink_lo)
(assert
  (str.in_re x
    (re.union (re.inter (re.++ (str.to_re "/") (re.* ((_ re.loop 4 4) (re.union (re.range "A" "Z") (re.range "a" "z") (re.range "0" "9") (str.to_re "+") (str.to_re "/")))) (re.union ((_ re.loop 4 4) (re.union (re.range "A" "Z") (re.range "a" "z") (re.range "0" "9") (str.to_re "+") (str.to_re "/"))) (re.++ ((_ re.loop 3 3) (re.union (re.range "A" "Z") (re.range "a" "z") (re.range "0" "9") (str.to_re "+") (str.to_re "/"))) (str.to_re "=")) (re.++ ((_ re.loop 2 2) (re.union (re.range "A" "Z") (re.range "a" "z") (re.range "0" "9") (str.to_re "+") (str.to_re "/"))) (str.to_re "=="))) (str.to_re "/mP\u{a}")) (re.comp (re.++ (str.to_re "/") (re.* ((_ re.loop 4 4) (re.union (re.range "A" "Z") (re.range "a" "z") (re.range "0" "9") (str.to_re "+") (str.to_re "/")))) (re.union ((_ re.loop 4 4) (re.union (re.range "A" "Z") (re.range "a" "z") (re.range "0" "9") (str.to_re "+") (str.to_re "/"))) (re.++ ((_ re.loop 3 3) (re.union (re.range "A" "Z") (re.range "a" "z") (re.range "0" "9") (str.to_re "+") (str.to_re "/"))) (str.to_re "=")) (re.++ ((_ re.loop 2 2) (re.union (re.range "B" "Z") (re.range "a" "z") (re.range "0" "9") (str.to_re "+") (str.to_re "/"))) (str.to_re "=="))) (str.to_re "/mP\u{a}")))) (re.inter (re.comp (re.++ (str.to_re "/") (re.* ((_ re.loop 4 4) (re.union (re.range "A" "Z") (re.range "a" "z") (re.range "0" "9") (str.to_re "+") (str.to_re "/")))) (re.union ((_ re.loop 4 4) (re.union (re.range "A" "Z") (re.range "a" "z") (re.range "0" "9") (str.to_re "+") (str.to_re "/"))) (re.++ ((_ re.loop 3 3) (re.union (re.range "A" "Z") (re.range "a" "z") (re.range "0" "9") (str.to_re "+") (str.to_re "/"))) (str.to_re "=")) (re.++ ((_ re.loop 2 2) (re.union (re.range "A" "Z") (re.range "a" "z") (re.range "0" "9") (str.to_re "+") (str.to_re "/"))) (str.to_re "=="))) (str.to_re "/mP\u{a}"))) (re.++ (str.to_re "/") (re.* ((_ re.loop 4 4) (re.union (re.range "A" "Z") (re.range "a" "z") (re.range "0" "9") (str.to_re "+") (str.to_re "/")))) (re.union ((_ re.loop 4 4) (re.union (re.range "A" "Z") (re.range "a" "z") (re.range "0" "9") (str.to_re "+") (str.to_re "/"))) (re.++ ((_ re.loop 3 3) (re.union (re.range "A" "Z") (re.range "a" "z") (re.range "0" "9") (str.to_re "+") (str.to_re "/"))) (str.to_re "=")) (re.++ ((_ re.loop 2 2) (re.union (re.range "B" "Z") (re.range "a" "z") (re.range "0" "9") (str.to_re "+") (str.to_re "/"))) (str.to_re "=="))) (str.to_re "/mP\u{a}"))))))

(check-sat)
(exit)
